
  32    4
  10   10   10   10

   0   0   0   0   0   3 2 9 29 
   9   1   1   1   0   1 3 
   5   8   2   3   0   1 4 
  10   0   4   9   1   2 13 5 
   6   9   2   0   5   1 6 
   8   4   0   9   5   1 7 
   2   4   1   0   3   2 23 8 
   1   2   2   3   0   1 10 
   7   3   8   0   6   1 10 
  10   0   5   6   3   1 11 
   3   7   0   5   4   2 25 12 
   5   2   8   4   0   1 14 
   9   0   3   4   5   1 14 
  10   0   2   2   3   1 15 
   3   3   0   3   3   1 16 
   6   5   7   0   2   1 17 
   1   4   2   6   0   1 18 
   7   3   0   1   7   1 19 
   4   5   4   0   6   1 20 
   3   5   0   4   2   1 21 
   3   5   0   4   2   2 31 22 
   2   3   5   3   0   1 24 
   3   8   5   3   0   1 24 
   6   2   3   0   2   1 26 
   8   1   4   2   0   1 26 
   1   5   6   0   6   1 27 
   8   4   6   0   5   1 28 
   6   2   4   0   4   1 30 
   3   2   1   0   3   1 30 
  10   3   6   0   4   1 32
   5   4   5   0   7   1 32
   0   0   0   0   0   0 
